NAME: test1796
TYPE: TSP
DIMENSION: 11
EDGE_WEIGHT_TYPE: EUC_2D
NODE_COORD_SECTION
1 33.684195154014986 19.743651116573158
2 24.3094103928986 55.57825038990646
3 25.196259781308537 52.832484441889804
4 68.12811769213296 73.72222986617383
5 0.9163359849543973 98.39143620730107
6 77.16764779123132 63.24630015394962
7 38.99520727258021 98.45193772047529
8 17.469117594075424 93.28993122003847
9 56.42707728789915 96.51500533207492
10 82.9474161008885 65.83381405198944
11 56.74417734284686 67.48113336582551
EOF
